p cnf 271 884
c weights 1.0 1.0 2.718281828459045 0.36787944117144233 2.718281828459045 0.36787944117144233 2.718281828459045 0.36787944117144233 2.718281828459045 0.36787944117144233 2.718281828459045 0.36787944117144233 2.718281828459045 0.36787944117144233 2.718281828459045 0.36787944117144233 1.0 1.0 2.718281828459045 0.36787944117144233 2.718281828459045 0.36787944117144233 2.718281828459045 0.36787944117144233 2.718281828459045 0.36787944117144233 2.718281828459045 0.36787944117144233 2.718281828459045 0.36787944117144233 2.718281828459045 0.36787944117144233 1.0 1.0 2.718281828459045 0.36787944117144233 2.718281828459045 0.36787944117144233 2.718281828459045 0.36787944117144233 2.718281828459045 0.36787944117144233 2.718281828459045 0.36787944117144233 2.718281828459045 0.36787944117144233 2.718281828459045 0.36787944117144233 2.718281828459045 0.36787944117144233 2.718281828459045 0.36787944117144233 2.718281828459045 0.36787944117144233 2.718281828459045 0.36787944117144233 1.0 1.0 2.718281828459045 0.36787944117144233 2.718281828459045 0.36787944117144233 2.718281828459045 0.36787944117144233 2.718281828459045 0.36787944117144233 2.718281828459045 0.36787944117144233 2.718281828459045 0.36787944117144233 2.718281828459045 0.36787944117144233 2.718281828459045 0.36787944117144233 2.718281828459045 0.36787944117144233 1.0 1.0 2.718281828459045 0.36787944117144233 2.718281828459045 0.36787944117144233 2.718281828459045 0.36787944117144233 2.718281828459045 0.36787944117144233 2.718281828459045 0.36787944117144233 2.718281828459045 0.36787944117144233 2.718281828459045 0.36787944117144233 2.718281828459045 0.36787944117144233 2.718281828459045 0.36787944117144233 2.718281828459045 0.36787944117144233 1.0 1.0 2.718281828459045 0.36787944117144233 2.718281828459045 0.36787944117144233 2.718281828459045 0.36787944117144233 2.718281828459045 0.36787944117144233 2.718281828459045 0.36787944117144233 2.718281828459045 0.36787944117144233 2.718281828459045 0.36787944117144233 2.718281828459045 0.36787944117144233 2.718281828459045 0.36787944117144233 1.0 1.0 2.718281828459045 0.36787944117144233 2.718281828459045 0.36787944117144233 2.718281828459045 0.36787944117144233 2.718281828459045 0.36787944117144233 1.0 1.0 2.718281828459045 0.36787944117144233 2.718281828459045 0.36787944117144233 2.718281828459045 0.36787944117144233 2.718281828459045 0.36787944117144233 2.718281828459045 0.36787944117144233 2.718281828459045 0.36787944117144233 2.718281828459045 0.36787944117144233 2.718281828459045 0.36787944117144233 2.718281828459045 0.36787944117144233 1.0 1.0 2.718281828459045 0.36787944117144233 2.718281828459045 0.36787944117144233 2.718281828459045 0.36787944117144233 2.718281828459045 0.36787944117144233 2.718281828459045 0.36787944117144233 2.718281828459045 0.36787944117144233 2.718281828459045 0.36787944117144233 2.718281828459045 0.36787944117144233 2.718281828459045 0.36787944117144233 2.718281828459045 0.36787944117144233 2.718281828459045 0.36787944117144233 2.718281828459045 0.36787944117144233 1.0 1.0 2.718281828459045 0.36787944117144233 2.718281828459045 0.36787944117144233 2.718281828459045 0.36787944117144233 2.718281828459045 0.36787944117144233 2.718281828459045 0.36787944117144233 2.718281828459045 0.36787944117144233 2.718281828459045 0.36787944117144233 2.718281828459045 0.36787944117144233 1.0 1.0 2.718281828459045 0.36787944117144233 2.718281828459045 0.36787944117144233 2.718281828459045 0.36787944117144233 2.718281828459045 0.36787944117144233 1.0 1.0 2.718281828459045 0.36787944117144233 2.718281828459045 0.36787944117144233 2.718281828459045 0.36787944117144233 2.718281828459045 0.36787944117144233 2.718281828459045 0.36787944117144233 1.0 1.0 2.718281828459045 0.36787944117144233 2.718281828459045 0.36787944117144233 2.718281828459045 0.36787944117144233 2.718281828459045 0.36787944117144233 2.718281828459045 0.36787944117144233 1.0 1.0 2.718281828459045 0.36787944117144233 2.718281828459045 0.36787944117144233 2.718281828459045 0.36787944117144233 2.718281828459045 0.36787944117144233 1.0 1.0 2.718281828459045 0.36787944117144233 2.718281828459045 0.36787944117144233 2.718281828459045 0.36787944117144233 2.718281828459045 0.36787944117144233 2.718281828459045 0.36787944117144233 2.718281828459045 0.36787944117144233 2.718281828459045 0.36787944117144233 2.718281828459045 0.36787944117144233 2.718281828459045 0.36787944117144233 2.718281828459045 0.36787944117144233 2.718281828459045 0.36787944117144233 1.0 1.0 2.718281828459045 0.36787944117144233 2.718281828459045 0.36787944117144233 2.718281828459045 0.36787944117144233 2.718281828459045 0.36787944117144233 2.718281828459045 0.36787944117144233 1.0 1.0 2.718281828459045 0.36787944117144233 2.718281828459045 0.36787944117144233 2.718281828459045 0.36787944117144233 2.718281828459045 0.36787944117144233 2.718281828459045 0.36787944117144233 2.718281828459045 0.36787944117144233 1.0 1.0 2.718281828459045 0.36787944117144233 2.718281828459045 0.36787944117144233 2.718281828459045 0.36787944117144233 2.718281828459045 0.36787944117144233 2.718281828459045 0.36787944117144233 2.718281828459045 0.36787944117144233 2.718281828459045 0.36787944117144233 2.718281828459045 0.36787944117144233 1.0 1.0 2.718281828459045 0.36787944117144233 2.718281828459045 0.36787944117144233 2.718281828459045 0.36787944117144233 2.718281828459045 0.36787944117144233 2.718281828459045 0.36787944117144233 1.0 1.0 2.718281828459045 0.36787944117144233 2.718281828459045 0.36787944117144233 2.718281828459045 0.36787944117144233 2.718281828459045 0.36787944117144233 2.718281828459045 0.36787944117144233 2.718281828459045 0.36787944117144233 1.0 1.0 2.718281828459045 0.36787944117144233 2.718281828459045 0.36787944117144233 2.718281828459045 0.36787944117144233 2.718281828459045 0.36787944117144233 2.718281828459045 0.36787944117144233 1.0 1.0 2.718281828459045 0.36787944117144233 2.718281828459045 0.36787944117144233 2.718281828459045 0.36787944117144233 1.0 1.0 2.718281828459045 0.36787944117144233 2.718281828459045 0.36787944117144233 2.718281828459045 0.36787944117144233 2.718281828459045 0.36787944117144233 2.718281828459045 0.36787944117144233 2.718281828459045 0.36787944117144233 1.0 1.0 2.718281828459045 0.36787944117144233 2.718281828459045 0.36787944117144233 2.718281828459045 0.36787944117144233 1.0 1.0 2.718281828459045 0.36787944117144233 2.718281828459045 0.36787944117144233 2.718281828459045 0.36787944117144233 2.718281828459045 0.36787944117144233 1.0 1.0 2.718281828459045 0.36787944117144233 2.718281828459045 0.36787944117144233 2.718281828459045 0.36787944117144233 2.718281828459045 0.36787944117144233 1.0 1.0 2.718281828459045 0.36787944117144233 2.718281828459045 0.36787944117144233 2.718281828459045 0.36787944117144233 2.718281828459045 0.36787944117144233 2.718281828459045 0.36787944117144233 2.718281828459045 0.36787944117144233 2.718281828459045 0.36787944117144233 1.0 1.0 2.718281828459045 0.36787944117144233 1.0 1.0 2.718281828459045 0.36787944117144233 2.718281828459045 0.36787944117144233 2.718281828459045 0.36787944117144233 1.0 1.0 2.718281828459045 0.36787944117144233 2.718281828459045 0.36787944117144233 1.0 1.0 2.718281828459045 0.36787944117144233 2.718281828459045 0.36787944117144233 2.718281828459045 0.36787944117144233 2.718281828459045 0.36787944117144233 1.0 1.0 2.718281828459045 0.36787944117144233 2.718281828459045 0.36787944117144233 2.718281828459045 0.36787944117144233 2.718281828459045 0.36787944117144233 2.718281828459045 0.36787944117144233 2.718281828459045 0.36787944117144233 2.718281828459045 0.36787944117144233 2.718281828459045 0.36787944117144233 2.718281828459045 0.36787944117144233 1.0 1.0 2.718281828459045 0.36787944117144233 2.718281828459045 0.36787944117144233 2.718281828459045 0.36787944117144233 2.718281828459045 0.36787944117144233 1.0 1.0 2.718281828459045 0.36787944117144233 2.718281828459045 0.36787944117144233 1.0 1.0 2.718281828459045 0.36787944117144233 2.718281828459045 0.36787944117144233 2.718281828459045 0.36787944117144233 1.0 1.0 1.0 1.0 2.718281828459045 0.36787944117144233 2.718281828459045 0.36787944117144233 1.0 1.0 2.718281828459045 0.36787944117144233 2.718281828459045 0.36787944117144233 1.0 1.0 1.0 1.0 2.718281828459045 0.36787944117144233 1.0 1.0 2.718281828459045 0.36787944117144233 1.0 1.0 2.718281828459045 0.36787944117144233 1.0 1.0 2.718281828459045 0.36787944117144233 2.718281828459045 0.36787944117144233 1.0 1.0 2.718281828459045 0.36787944117144233 1.0 1.0 2.718281828459045 0.36787944117144233 2.718281828459045 0.36787944117144233 1.0 1.0 2.718281828459045 0.36787944117144233 2.718281828459045 0.36787944117144233 1.0 1.0 2.718281828459045 0.36787944117144233 1.0 1.0 2.718281828459045 0.36787944117144233 1.0 1.0 1.0 1.0
2 1 9 0
2 -1 -9 0
-2 1 -9 0
-2 -1 9 0
3 1 65 0
3 -1 -65 0
-3 1 -65 0
-3 -1 65 0
4 1 97 0
4 -1 -97 0
-4 1 -97 0
-4 -1 97 0
5 1 159 0
5 -1 -159 0
-5 1 -159 0
-5 -1 159 0
6 1 166 0
6 -1 -166 0
-6 1 -166 0
-6 -1 166 0
7 1 183 0
7 -1 -183 0
-7 1 -183 0
-7 -1 183 0
8 1 229 0
8 -1 -229 0
-8 1 -229 0
-8 -1 229 0
10 9 50 0
10 -9 -50 0
-10 9 -50 0
-10 -9 50 0
11 9 131 0
11 -9 -131 0
-11 9 -131 0
-11 -9 131 0
12 9 166 0
12 -9 -166 0
-12 9 -166 0
-12 -9 166 0
13 9 248 0
13 -9 -248 0
-13 9 -248 0
-13 -9 248 0
14 9 249 0
14 -9 -249 0
-14 9 -249 0
-14 -9 249 0
15 9 258 0
15 -9 -258 0
-15 9 -258 0
-15 -9 258 0
16 9 263 0
16 -9 -263 0
-16 9 -263 0
-16 -9 263 0
18 17 29 0
18 -17 -29 0
-18 17 -29 0
-18 -17 29 0
19 17 39 0
19 -17 -39 0
-19 17 -39 0
-19 -17 39 0
20 17 97 0
20 -17 -97 0
-20 17 -97 0
-20 -17 97 0
21 17 102 0
21 -17 -102 0
-21 17 -102 0
-21 -17 102 0
22 17 159 0
22 -17 -159 0
-22 17 -159 0
-22 -17 159 0
23 17 183 0
23 -17 -183 0
-23 17 -183 0
-23 -17 183 0
24 17 187 0
24 -17 -187 0
-24 17 -187 0
-24 -17 187 0
25 17 207 0
25 -17 -207 0
-25 17 -207 0
-25 -17 207 0
26 17 248 0
26 -17 -248 0
-26 17 -248 0
-26 -17 248 0
27 17 266 0
27 -17 -266 0
-27 17 -266 0
-27 -17 266 0
28 17 270 0
28 -17 -270 0
-28 17 -270 0
-28 -17 270 0
30 29 75 0
30 -29 -75 0
-30 29 -75 0
-30 -29 75 0
31 29 88 0
31 -29 -88 0
-31 29 -88 0
-31 -29 88 0
32 29 137 0
32 -29 -137 0
-32 29 -137 0
-32 -29 137 0
33 29 159 0
33 -29 -159 0
-33 29 -159 0
-33 -29 159 0
34 29 229 0
34 -29 -229 0
-34 29 -229 0
-34 -29 229 0
35 29 234 0
35 -29 -234 0
-35 29 -234 0
-35 -29 234 0
36 29 248 0
36 -29 -248 0
-36 29 -248 0
-36 -29 248 0
37 29 260 0
37 -29 -260 0
-37 29 -260 0
-37 -29 260 0
38 29 263 0
38 -29 -263 0
-38 29 -263 0
-38 -29 263 0
40 39 50 0
40 -39 -50 0
-40 39 -50 0
-40 -39 50 0
41 39 60 0
41 -39 -60 0
-41 39 -60 0
-41 -39 60 0
42 39 88 0
42 -39 -88 0
-42 39 -88 0
-42 -39 88 0
43 39 166 0
43 -39 -166 0
-43 39 -166 0
-43 -39 166 0
44 39 176 0
44 -39 -176 0
-44 39 -176 0
-44 -39 176 0
45 39 229 0
45 -39 -229 0
-45 39 -229 0
-45 -39 229 0
46 39 234 0
46 -39 -234 0
-46 39 -234 0
-46 -39 234 0
47 39 253 0
47 -39 -253 0
-47 39 -253 0
-47 -39 253 0
48 39 258 0
48 -39 -258 0
-48 39 -258 0
-48 -39 258 0
49 39 263 0
49 -39 -263 0
-49 39 -263 0
-49 -39 263 0
51 50 114 0
51 -50 -114 0
-51 50 -114 0
-51 -50 114 0
52 50 119 0
52 -50 -119 0
-52 50 -119 0
-52 -50 119 0
53 50 166 0
53 -50 -166 0
-53 50 -166 0
-53 -50 166 0
54 50 183 0
54 -50 -183 0
-54 50 -183 0
-54 -50 183 0
55 50 205 0
55 -50 -205 0
-55 50 -205 0
-55 -50 205 0
56 50 251 0
56 -50 -251 0
-56 50 -251 0
-56 -50 251 0
57 50 268 0
57 -50 -268 0
-57 50 -268 0
-57 -50 268 0
58 50 270 0
58 -50 -270 0
-58 50 -270 0
-58 -50 270 0
59 50 271 0
59 -50 -271 0
-59 50 -271 0
-59 -50 271 0
61 60 137 0
61 -60 -137 0
-61 60 -137 0
-61 -60 137 0
62 60 205 0
62 -60 -205 0
-62 60 -205 0
-62 -60 205 0
63 60 237 0
63 -60 -237 0
-63 60 -237 0
-63 -60 237 0
64 60 255 0
64 -60 -255 0
-64 60 -255 0
-64 -60 255 0
66 65 137 0
66 -65 -137 0
-66 65 -137 0
-66 -65 137 0
67 65 166 0
67 -65 -166 0
-67 65 -166 0
-67 -65 166 0
68 65 176 0
68 -65 -176 0
-68 65 -176 0
-68 -65 176 0
69 65 183 0
69 -65 -183 0
-69 65 -183 0
-69 -65 183 0
70 65 211 0
70 -65 -211 0
-70 65 -211 0
-70 -65 211 0
71 65 255 0
71 -65 -255 0
-71 65 -255 0
-71 -65 255 0
72 65 260 0
72 -65 -260 0
-72 65 -260 0
-72 -65 260 0
73 65 266 0
73 -65 -266 0
-73 65 -266 0
-73 -65 266 0
74 65 270 0
74 -65 -270 0
-74 65 -270 0
-74 -65 270 0
76 75 88 0
76 -75 -88 0
-76 75 -88 0
-76 -75 88 0
77 75 102 0
77 -75 -102 0
-77 75 -102 0
-77 -75 102 0
78 75 108 0
78 -75 -108 0
-78 75 -108 0
-78 -75 108 0
79 75 131 0
79 -75 -131 0
-79 75 -131 0
-79 -75 131 0
80 75 159 0
80 -75 -159 0
-80 75 -159 0
-80 -75 159 0
81 75 183 0
81 -75 -183 0
-81 75 -183 0
-81 -75 183 0
82 75 197 0
82 -75 -197 0
-82 75 -197 0
-82 -75 197 0
83 75 207 0
83 -75 -207 0
-83 75 -207 0
-83 -75 207 0
84 75 219 0
84 -75 -219 0
-84 75 -219 0
-84 -75 219 0
85 75 242 0
85 -75 -242 0
-85 75 -242 0
-85 -75 242 0
86 75 266 0
86 -75 -266 0
-86 75 -266 0
-86 -75 266 0
87 75 268 0
87 -75 -268 0
-87 75 -268 0
-87 -75 268 0
89 88 144 0
89 -88 -144 0
-89 88 -144 0
-89 -88 144 0
90 88 219 0
90 -88 -219 0
-90 88 -219 0
-90 -88 219 0
91 88 245 0
91 -88 -245 0
-91 88 -245 0
-91 -88 245 0
92 88 248 0
92 -88 -248 0
-92 88 -248 0
-92 -88 248 0
93 88 253 0
93 -88 -253 0
-93 88 -253 0
-93 -88 253 0
94 88 258 0
94 -88 -258 0
-94 88 -258 0
-94 -88 258 0
95 88 266 0
95 -88 -266 0
-95 88 -266 0
-95 -88 266 0
96 88 268 0
96 -88 -268 0
-96 88 -268 0
-96 -88 268 0
98 97 137 0
98 -97 -137 0
-98 97 -137 0
-98 -97 137 0
99 97 144 0
99 -97 -144 0
-99 97 -144 0
-99 -97 144 0
100 97 183 0
100 -97 -183 0
-100 97 -183 0
-100 -97 183 0
101 97 249 0
101 -97 -249 0
-101 97 -249 0
-101 -97 249 0
103 102 108 0
103 -102 -108 0
-103 102 -108 0
-103 -102 108 0
104 102 159 0
104 -102 -159 0
-104 102 -159 0
-104 -102 159 0
105 102 176 0
105 -102 -176 0
-105 102 -176 0
-105 -102 176 0
106 102 207 0
106 -102 -207 0
-106 102 -207 0
-106 -102 207 0
107 102 253 0
107 -102 -253 0
-107 102 -253 0
-107 -102 253 0
109 108 183 0
109 -108 -183 0
-109 108 -183 0
-109 -108 183 0
110 108 245 0
110 -108 -245 0
-110 108 -245 0
-110 -108 245 0
111 108 255 0
111 -108 -255 0
-111 108 -255 0
-111 -108 255 0
112 108 266 0
112 -108 -266 0
-112 108 -266 0
-112 -108 266 0
113 108 268 0
113 -108 -268 0
-113 108 -268 0
-113 -108 268 0
115 114 205 0
115 -114 -205 0
-115 114 -205 0
-115 -114 205 0
116 114 242 0
116 -114 -242 0
-116 114 -242 0
-116 -114 242 0
117 114 245 0
117 -114 -245 0
-117 114 -245 0
-117 -114 245 0
118 114 248 0
118 -114 -248 0
-118 114 -248 0
-118 -114 248 0
120 119 144 0
120 -119 -144 0
-120 119 -144 0
-120 -119 144 0
121 119 153 0
121 -119 -153 0
-121 119 -153 0
-121 -119 153 0
122 119 159 0
122 -119 -159 0
-122 119 -159 0
-122 -119 159 0
123 119 166 0
123 -119 -166 0
-123 119 -166 0
-123 -119 166 0
124 119 183 0
124 -119 -183 0
-124 119 -183 0
-124 -119 183 0
125 119 197 0
125 -119 -197 0
-125 119 -197 0
-125 -119 197 0
126 119 205 0
126 -119 -205 0
-126 119 -205 0
-126 -119 205 0
127 119 229 0
127 -119 -229 0
-127 119 -229 0
-127 -119 229 0
128 119 234 0
128 -119 -234 0
-128 119 -234 0
-128 -119 234 0
129 119 249 0
129 -119 -249 0
-129 119 -249 0
-129 -119 249 0
130 119 268 0
130 -119 -268 0
-130 119 -268 0
-130 -119 268 0
132 131 229 0
132 -131 -229 0
-132 131 -229 0
-132 -131 229 0
133 131 241 0
133 -131 -241 0
-133 131 -241 0
-133 -131 241 0
134 131 263 0
134 -131 -263 0
-134 131 -263 0
-134 -131 263 0
135 131 268 0
135 -131 -268 0
-135 131 -268 0
-135 -131 268 0
136 131 270 0
136 -131 -270 0
-136 131 -270 0
-136 -131 270 0
138 137 144 0
138 -137 -144 0
-138 137 -144 0
-138 -137 144 0
139 137 176 0
139 -137 -176 0
-139 137 -176 0
-139 -137 176 0
140 137 205 0
140 -137 -205 0
-140 137 -205 0
-140 -137 205 0
141 137 245 0
141 -137 -245 0
-141 137 -245 0
-141 -137 245 0
142 137 253 0
142 -137 -253 0
-142 137 -253 0
-142 -137 253 0
143 137 268 0
143 -137 -268 0
-143 137 -268 0
-143 -137 268 0
145 144 172 0
145 -144 -172 0
-145 144 -172 0
-145 -144 172 0
146 144 197 0
146 -144 -197 0
-146 144 -197 0
-146 -144 197 0
147 144 237 0
147 -144 -237 0
-147 144 -237 0
-147 -144 237 0
148 144 248 0
148 -144 -248 0
-148 144 -248 0
-148 -144 248 0
149 144 249 0
149 -144 -249 0
-149 144 -249 0
-149 -144 249 0
150 144 255 0
150 -144 -255 0
-150 144 -255 0
-150 -144 255 0
151 144 268 0
151 -144 -268 0
-151 144 -268 0
-151 -144 268 0
152 144 271 0
152 -144 -271 0
-152 144 -271 0
-152 -144 271 0
154 153 166 0
154 -153 -166 0
-154 153 -166 0
-154 -153 166 0
155 153 242 0
155 -153 -242 0
-155 153 -242 0
-155 -153 242 0
156 153 245 0
156 -153 -245 0
-156 153 -245 0
-156 -153 245 0
157 153 263 0
157 -153 -263 0
-157 153 -263 0
-157 -153 263 0
158 153 270 0
158 -153 -270 0
-158 153 -270 0
-158 -153 270 0
160 159 214 0
160 -159 -214 0
-160 159 -214 0
-160 -159 214 0
161 159 219 0
161 -159 -219 0
-161 159 -219 0
-161 -159 219 0
162 159 242 0
162 -159 -242 0
-162 159 -242 0
-162 -159 242 0
163 159 258 0
163 -159 -258 0
-163 159 -258 0
-163 -159 258 0
164 159 266 0
164 -159 -266 0
-164 159 -266 0
-164 -159 266 0
165 159 268 0
165 -159 -268 0
-165 159 -268 0
-165 -159 268 0
167 166 211 0
167 -166 -211 0
-167 166 -211 0
-167 -166 211 0
168 166 258 0
168 -166 -258 0
-168 166 -258 0
-168 -166 258 0
169 166 263 0
169 -166 -263 0
-169 166 -263 0
-169 -166 263 0
170 166 266 0
170 -166 -266 0
-170 166 -266 0
-170 -166 266 0
171 166 268 0
171 -166 -268 0
-171 166 -268 0
-171 -166 268 0
173 172 197 0
173 -172 -197 0
-173 172 -197 0
-173 -172 197 0
174 172 241 0
174 -172 -241 0
-174 172 -241 0
-174 -172 241 0
175 172 245 0
175 -172 -245 0
-175 172 -245 0
-175 -172 245 0
177 176 214 0
177 -176 -214 0
-177 176 -214 0
-177 -176 214 0
178 176 219 0
178 -176 -219 0
-178 176 -219 0
-178 -176 219 0
179 176 229 0
179 -176 -229 0
-179 176 -229 0
-179 -176 229 0
180 176 234 0
180 -176 -234 0
-180 176 -234 0
-180 -176 234 0
181 176 237 0
181 -176 -237 0
-181 176 -237 0
-181 -176 237 0
182 176 241 0
182 -176 -241 0
-182 176 -241 0
-182 -176 241 0
184 183 241 0
184 -183 -241 0
-184 183 -241 0
-184 -183 241 0
185 183 263 0
185 -183 -263 0
-185 183 -263 0
-185 -183 263 0
186 183 270 0
186 -183 -270 0
-186 183 -270 0
-186 -183 270 0
188 187 234 0
188 -187 -234 0
-188 187 -234 0
-188 -187 234 0
189 187 248 0
189 -187 -248 0
-189 187 -248 0
-189 -187 248 0
190 187 249 0
190 -187 -249 0
-190 187 -249 0
-190 -187 249 0
191 187 270 0
191 -187 -270 0
-191 187 -270 0
-191 -187 270 0
193 192 219 0
193 -192 -219 0
-193 192 -219 0
-193 -192 219 0
194 192 237 0
194 -192 -237 0
-194 192 -237 0
-194 -192 237 0
195 192 268 0
195 -192 -268 0
-195 192 -268 0
-195 -192 268 0
196 192 270 0
196 -192 -270 0
-196 192 -270 0
-196 -192 270 0
198 197 205 0
198 -197 -205 0
-198 197 -205 0
-198 -197 205 0
199 197 229 0
199 -197 -229 0
-199 197 -229 0
-199 -197 229 0
200 197 242 0
200 -197 -242 0
-200 197 -242 0
-200 -197 242 0
201 197 248 0
201 -197 -248 0
-201 197 -248 0
-201 -197 248 0
202 197 251 0
202 -197 -251 0
-202 197 -251 0
-202 -197 251 0
203 197 258 0
203 -197 -258 0
-203 197 -258 0
-203 -197 258 0
204 197 263 0
204 -197 -263 0
-204 197 -263 0
-204 -197 263 0
206 205 241 0
206 -205 -241 0
-206 205 -241 0
-206 -205 241 0
208 207 219 0
208 -207 -219 0
-208 207 -219 0
-208 -207 219 0
209 207 241 0
209 -207 -241 0
-209 207 -241 0
-209 -207 241 0
210 207 260 0
210 -207 -260 0
-210 207 -260 0
-210 -207 260 0
212 211 251 0
212 -211 -251 0
-212 211 -251 0
-212 -211 251 0
213 211 253 0
213 -211 -253 0
-213 211 -253 0
-213 -211 253 0
215 214 237 0
215 -214 -237 0
-215 214 -237 0
-215 -214 237 0
216 214 241 0
216 -214 -241 0
-216 214 -241 0
-216 -214 241 0
217 214 255 0
217 -214 -255 0
-217 214 -255 0
-217 -214 255 0
218 214 270 0
218 -214 -270 0
-218 214 -270 0
-218 -214 270 0
220 219 229 0
220 -219 -229 0
-220 219 -229 0
-220 -219 229 0
221 219 234 0
221 -219 -234 0
-221 219 -234 0
-221 -219 234 0
222 219 242 0
222 -219 -242 0
-222 219 -242 0
-222 -219 242 0
223 219 245 0
223 -219 -245 0
-223 219 -245 0
-223 -219 245 0
224 219 255 0
224 -219 -255 0
-224 219 -255 0
-224 -219 255 0
225 219 258 0
225 -219 -258 0
-225 219 -258 0
-225 -219 258 0
226 219 263 0
226 -219 -263 0
-226 219 -263 0
-226 -219 263 0
227 219 266 0
227 -219 -266 0
-227 219 -266 0
-227 -219 266 0
228 219 268 0
228 -219 -268 0
-228 219 -268 0
-228 -219 268 0
230 229 237 0
230 -229 -237 0
-230 229 -237 0
-230 -229 237 0
231 229 241 0
231 -229 -241 0
-231 229 -241 0
-231 -229 241 0
232 229 248 0
232 -229 -248 0
-232 229 -248 0
-232 -229 248 0
233 229 258 0
233 -229 -258 0
-233 229 -258 0
-233 -229 258 0
235 234 241 0
235 -234 -241 0
-235 234 -241 0
-235 -234 241 0
236 234 260 0
236 -234 -260 0
-236 234 -260 0
-236 -234 260 0
238 237 248 0
238 -237 -248 0
-238 237 -248 0
-238 -237 248 0
239 237 249 0
239 -237 -249 0
-239 237 -249 0
-239 -237 249 0
240 237 258 0
240 -237 -258 0
-240 237 -258 0
-240 -237 258 0
243 242 251 0
243 -242 -251 0
-243 242 -251 0
-243 -242 251 0
244 242 258 0
244 -242 -258 0
-244 242 -258 0
-244 -242 258 0
246 245 258 0
246 -245 -258 0
-246 245 -258 0
-246 -245 258 0
247 245 260 0
247 -245 -260 0
-247 245 -260 0
-247 -245 260 0
250 249 266 0
250 -249 -266 0
-250 249 -266 0
-250 -249 266 0
252 251 253 0
252 -251 -253 0
-252 251 -253 0
-252 -251 253 0
254 253 260 0
254 -253 -260 0
-254 253 -260 0
-254 -253 260 0
256 255 266 0
256 -255 -266 0
-256 255 -266 0
-256 -255 266 0
257 255 270 0
257 -255 -270 0
-257 255 -270 0
-257 -255 270 0
259 258 260 0
259 -258 -260 0
-259 258 -260 0
-259 -258 260 0
261 260 263 0
261 -260 -263 0
-261 260 -263 0
-261 -260 263 0
262 260 268 0
262 -260 -268 0
-262 260 -268 0
-262 -260 268 0
264 263 268 0
264 -263 -268 0
-264 263 -268 0
-264 -263 268 0
265 263 270 0
265 -263 -270 0
-265 263 -270 0
-265 -263 270 0
267 266 270 0
267 -266 -270 0
-267 266 -270 0
-267 -266 270 0
269 268 270 0
269 -268 -270 0
-269 268 -270 0
-269 -268 270 0
